instances/A-n10-k4-m3-b4ampl_.txt
set K:= 1	2	3	4;
set C_H:= 1	2	3	4;
set C_S:= 5	6	7;
set C_F:= 8	9	10;
set M:= 11	12	13	14	15	16;
set L_B:= 17	18	19	20;
set A1:=
(0,*) 1 2 3 4 8 9 10 11 12 13 14 15 16 17 18 19 20
(1,*) 0 2 3 4 8 9 10 11 12 13 14 15 16 17 18 19 20
(2,*) 0 1 3 4 8 9 10 11 12 13 14 15 16 17 18 19 20
(3,*) 0 1 2 4 8 9 10 11 12 13 14 15 16 17 18 19 20
(4,*) 0 1 2 3 8 9 10 11 12 13 14 15 16 17 18 19 20
(8,*) 0 1 2 3 4 9 10 11 12 13 14 15 16 17 18 19 20
(9,*) 0 1 2 3 4 8 10 11 12 13 14 15 16 17 18 19 20
(10,*) 0 1 2 3 4 8 9 11 12 13 14 15 16 17 18 19 20
(11,*) 0 1 2 3 4 8 9 10 12 13 14 15 16 17 18 19 20
(12,*) 0 1 2 3 4 8 9 10 11 13 14 15 16 17 18 19 20
(13,*) 0 1 2 3 4 8 9 10 11 12 14 15 16 17 18 19 20
(14,*) 0 1 2 3 4 8 9 10 11 12 13 15 16 17 18 19 20
(15,*) 0 1 2 3 4 8 9 10 11 12 13 14 16 17 18 19 20
(16,*) 0 1 2 3 4 8 9 10 11 12 13 14 15 17 18 19 20
(17,*) 0 1 2 3 4 8 9 10 11 12 13 14 15 16 18 19 20
(18,*) 0 1 2 3 4 8 9 10 11 12 13 14 15 16 17 19 20
(19,*) 0 1 2 3 4 8 9 10 11 12 13 14 15 16 17 18 20
(20,*) 0 1 2 3 4 8 9 10 11 12 13 14 15 16 17 18 19
;
set A2:=
(11,*) 12
(12,*) 11
(13,*) 14
(14,*) 13
(15,*) 16
(16,*) 15
;
param BigM:=99999;
param n:= 4;
param d:=
1	5
2	5
3	11
4	23
5	7
6	13
7	12
8	9
9	23
10	9
;
param Q:=100;
param w:=
[11,*] 12 0.1
[12,*] 11 0.1
[13,*] 14 0.1
[14,*] 13 0.1
[15,*] 16 0.1
[16,*] 15 0.1
;
param V:=
[11,*] 12 91
[12,*] 11 91
[13,*] 14 75
[14,*] 13 75
[15,*] 16 96
[16,*] 15 96
;
param e:
	11	12	13	14	15	16	17	18	19	20:=
5		1		0		0		1		0		0		0		1		0		0	
6		1		0		0		0		1		0		0		1		0		0	
7		1		0		0		0		1		0		0		1		0		0	
8		0		0		1		0		0		1		1		0		0		1	
9		0		0		1		0		0		1		1		0		0		1	
10		0		0		1		0		0		1		1		0		0		1	
;
param p:=
1	3
2	3
3	3
4	3
;
param G:=
11	91
12	83
13	75
14	70
15	72
16	96
17	84
18	93
19	81
20	94
;
param s:=
0	0
1	10
2	10
3	10
4	10
8	10
9	10
10	10
11	10
12	10
13	10
14	10
15	10
16	10
17	10
18	10
19	10
20	10
;
param t:
	0	1	2	3	4	5	6	7	8	9	10	11	12	13	14	15	16	17	18	19	20:=
0	0.0	47.54	41.23	41.23	51.09	56.01	39.81	30.36	74.25	75.03	95.86	27.29	102.07	80.01	70.11	15.52	80.52	60.88	44.94	106.79	72.09
1	47.54	0.0	6.32	6.32	15.81	16.4	11.18	17.26	56.75	61.03	79.08	20.62	68.31	82.66	25.3	32.02	70.94	56.3	5.66	69.32	56.61
2	41.23	6.32	0.0	0.0	17.03	19.42	8.06	11.05	57.56	61.39	80.31	14.32	72.24	81.12	30.59	25.71	70.88	55.01	6.32	73.93	57.07
3	41.23	6.32	0.0	0.0	17.03	19.42	8.06	11.05	57.56	61.39	80.31	14.32	72.24	81.12	30.59	25.71	70.88	55.01	6.32	73.93	57.07
4	51.09	15.81	17.03	17.03	0.0	5.39	25.0	25.06	72.53	76.84	94.73	25.0	81.58	97.94	20.25	36.67	86.73	71.69	21.02	81.27	72.42
5	56.01	16.4	19.42	19.42	5.39	0.0	26.91	28.79	72.11	76.69	93.86	29.43	78.77	99.05	14.87	41.3	86.82	72.67	22.02	77.88	72.24
6	39.81	11.18	8.06	8.06	25.0	26.91	0.0	10.63	50.16	53.76	73.06	15.81	67.54	73.06	36.4	24.7	63.06	46.96	6.08	70.21	49.5
7	30.36	17.26	11.05	11.05	25.06	28.79	10.63	0.0	58.08	61.03	81.1	5.39	77.9	77.08	41.3	14.87	69.58	51.92	14.76	80.8	57.0
8	74.25	56.75	57.56	57.56	72.53	72.11	50.16	58.08	0.0	5.83	23.02	63.2	36.4	35.47	73.57	65.25	16.28	18.79	51.97	45.54	3.16
9	75.03	61.03	61.39	61.39	76.84	76.69	53.76	61.03	5.83	0.0	20.88	66.0	40.61	29.73	78.77	67.08	10.63	16.28	56.04	50.16	4.47
10	95.86	79.08	80.31	80.31	94.73	93.86	73.06	81.1	23.02	20.88	0.0	86.21	36.4	35.44	93.62	87.86	17.69	35.85	74.55	46.82	24.33
11	27.29	20.62	14.32	14.32	25.0	29.43	15.81	5.39	63.2	66.0	86.21	0.0	83.24	80.99	43.0	12.0	74.33	56.29	19.21	86.02	62.03
12	102.07	68.31	72.24	72.24	81.58	78.77	67.54	77.9	36.4	40.61	36.4	83.24	0.0	68.07	73.06	89.63	47.01	55.03	65.92	10.44	39.56
13	80.01	82.66	81.12	81.12	97.94	99.05	73.06	77.08	35.47	29.73	35.44	80.99	68.07	0.0	104.0	77.67	21.1	26.4	77.1	78.23	33.11
14	70.11	25.3	30.59	30.59	20.25	14.87	36.4	41.3	73.57	78.77	93.62	43.0	73.06	104.0	0.0	55.0	89.31	77.78	30.46	70.35	74.33
15	15.52	32.02	25.71	25.71	36.67	41.3	24.7	14.87	65.25	67.08	87.86	12.0	89.63	77.67	55.0	0.0	74.17	55.0	29.55	93.51	63.56
16	80.52	70.94	70.88	70.88	86.73	86.82	63.06	69.58	16.28	10.63	17.69	74.33	47.01	21.1	89.31	74.17	0.0	19.65	65.79	57.14	15.0
17	60.88	56.3	55.01	55.01	71.69	72.67	46.96	51.92	18.79	16.28	35.85	56.29	55.03	26.4	77.78	55.0	19.65	0.0	50.77	63.79	15.65
18	44.94	5.66	6.32	6.32	21.02	22.02	6.08	14.76	51.97	56.04	74.55	19.21	65.92	77.1	30.46	29.55	65.79	50.77	0.0	67.74	51.66
19	106.79	69.32	73.93	73.93	81.27	77.88	70.21	80.8	45.54	50.16	46.82	86.02	10.44	78.23	70.35	93.51	57.14	63.79	67.74	0.0	48.66
20	72.09	56.61	57.07	57.07	72.42	72.24	49.5	57.0	3.16	4.47	24.33	62.03	39.56	33.11	74.33	63.56	15.0	15.65	51.66	48.66	0.0
;
