ampl_outputs/A-n10-k4-m3-b4ampl_.txt.out
Gurobi 12.0.1:   lim:time = 500
  mip:bestbound = 1
Set parameter LogToConsole to value 1
  tech:outlev = 1
Set parameter InfUnbdInfo to value 1
Gurobi Optimizer version 12.0.1 build v12.0.1rc0 (win64 - Windows 11.0 (26100.2))

CPU model: Intel(R) Core(TM) i7-10700 CPU @ 2.90GHz, instruction set [SSE2|AVX|AVX2]
Thread count: 8 physical cores, 16 logical processors, using up to 16 threads

Non-default parameters:
TimeLimit  500
InfUnbdInfo  1

Optimize a model with 437 rows, 1216 columns and 6013 nonzeros
Model fingerprint: 0x0da7532c
Model has 1 quadratic objective term
Model has 6 quadratic constraints
Variable types: 34 continuous, 1182 integer (0 binary)
Coefficient statistics:
  Matrix range     [1e+00, 1e+05]
  QMatrix range    [1e+00, 1e+00]
  QLMatrix range   [1e+00, 2e+01]
  Objective range  [2e+00, 4e+02]
  QObjective range [2e+00, 2e+00]
  Bounds range     [1e+00, 1e+02]
  RHS range        [1e+00, 1e+05]
  QRHS range       [1e+02, 1e+02]
Presolve removed 34 rows and 94 columns
Presolve time: 0.04s
Presolved: 1231 rows, 1826 columns, 8925 nonzeros
Variable types: 17 continuous, 1809 integer (1678 binary)
Found heuristic solution: objective 2184.4700000

Root relaxation: objective 5.540444e+02, 94 iterations, 0.00 seconds (0.00 work units)

    Nodes    |    Current Node    |     Objective Bounds      |     Work
 Expl Unexpl |  Obj  Depth IntInf | Incumbent    BestBd   Gap | It/Node Time

     0     0  554.04439    0   31 2184.47000  554.04439  74.6%     -    0s
H    0     0                    1981.2800000  554.04439  72.0%     -    0s
H    0     0                    1645.6100000  554.07816  66.3%     -    0s
H    0     0                    1490.5100000  554.07816  62.8%     -    0s
H    0     0                    1347.7600000  554.07816  58.9%     -    0s
     0     0  721.74002    0   21 1347.76000  721.74002  46.4%     -    0s
     0     0  723.69500    0   22 1347.76000  723.69500  46.3%     -    0s
     0     0  726.63000    0   18 1347.76000  726.63000  46.1%     -    0s
     0     0  726.63000    0   19 1347.76000  726.63000  46.1%     -    0s
     0     0  726.63000    0   19 1347.76000  726.63000  46.1%     -    0s
     0     0  726.63000    0   18 1347.76000  726.63000  46.1%     -    0s
     0     0  726.63000    0   18 1347.76000  726.63000  46.1%     -    0s
     0     0  726.63000    0   18 1347.76000  726.63000  46.1%     -    0s
     0     2  726.63000    0   18 1347.76000  726.63000  46.1%     -    0s
H   40    58                     943.8200000  726.67817  23.0%  20.7    0s
H  748   258                     929.5400000  726.95986  21.8%  13.1    0s
*  858   274              14     919.3700000  772.26000  16.0%  12.8    0s
*  930   261              10     908.9300000  772.26000  15.0%  12.8    0s

Cutting planes:
  Learned: 11
  Gomory: 2
  Cover: 7
  Implied bound: 40
  MIR: 12
  Inf proof: 18
  Zero half: 10
  RLT: 33

Explored 1819 nodes (22609 simplex iterations) in 0.54 seconds (0.63 work units)
Thread count was 16 (of 16 available processors)

Solution count 9: 908.93 919.37 929.54 ... 2184.47

Optimal solution found (tolerance 1.00e-04)
Best objective 9.089300000000e+02, best bound 9.089300000000e+02, gap 0.0000%

AMPL MP initial flat model has 1216 variables (0 integer, 1182 binary);
Objectives: 1 quadratic; 
Constraints:  437 linear; 6 quadratic;

AMPL MP final model has 1216 variables (0 integer, 1182 binary);
Objectives: 1 quadratic; 
Constraints:  437 linear; 6 quadratic;


-----RESULTS INFO-----
running_time:  0.61
TC.best_bound:  908.93
TC:  908.93
MIP Gap (%):  0
=== Vehicle Routes ===
Vehicle 1: 0 → 11
Vehicle 1: 1 → 21
Vehicle 1: 2 → 3
Vehicle 1: 3 → 19
Vehicle 1: 4 → 14
Vehicle 1: 11 → 4
Vehicle 1: 14 → 2
Vehicle 1: 19 → 1
Vehicle 2: 0 → 15
Vehicle 2: 15 → 21
Vehicle 3: 0 → 21
Vehicle 4: 0 → 21

=== Full Vehicle Routes ===
Vehicle 1: 0 → 11 → 4 → 14 → 2 → 3 → 19 → 1 → 0 (92<100)
Vehicle 2: 0 → 15 → 0 (21<100)
Vehicle 3: 0 → 0 (0<100)
Vehicle 4: 0 → 0 (0<100)
Arc used by MRT line: y variables:
MRT used: 11 → 12
MRT used: 15 → 16
Customer assigment to PL: u variables:
5 12
6 16
7 14
8 19
9 12
10 12
Node is served by regular vehicle: g variables:
1
2
3
4
19
11
14
15
Customer assigment to Home delivery: gm variables:
1
2
3
4
Node total demands: ntd variables:
1 19 1
2 24 1
3 4 1
4 8 1
8 0 0
9 0 0
10 0 0
17 0 0
18 0 0
19 12 1
20 0 0
11 23 1
12 0 0
13 0 0
14 2 1
15 21 1
16 0 0
Customer's demand delivered to PL: l variables:
5
6
7
8
9
10
